\ Model Ferry ILP_copy
\ LP format - for model browsing. Use MPS format to capture full model detail.
Minimize
 
Subject To
 1b__assign_vessel_l7_s11_d6: - x_7_6 + y_V18_7_46 + y_V19_7_46 + y_V1_7_46
   + y_V2_7_46 + y_V3_7_46 + y_V4_7_46 + y_V5_7_46 + y_V6_7_46 + y_V7_7_46
   + y_V8_7_46 + y_V9_7_46 + y_V10_7_46 + y_V11_7_46 + y_V12_7_46
   + y_V13_7_46 + y_V14_7_46 + y_V15_7_46 + y_V16_7_46 + y_V17_7_46 = 0
 1f__task_overlap_vV12_t46: y_V12_1_39 + y_V12_1_40 + y_V12_1_41
   + y_V12_1_42 + y_V12_1_43 + y_V12_1_44 + y_V12_1_45 + y_V12_1_46
   + y_V12_2_32 + y_V12_2_33 + y_V12_2_34 + y_V12_2_35 + y_V12_2_36
   + y_V12_2_37 + y_V12_2_38 + y_V12_2_39 + y_V12_2_40 + y_V12_2_41
   + y_V12_2_42 + y_V12_2_43 + y_V12_2_44 + y_V12_2_45 + y_V12_2_46
   + y_V12_3_39 + y_V12_3_40 + y_V12_3_41 + y_V12_3_42 + y_V12_3_43
   + y_V12_3_44 + y_V12_3_45 + y_V12_3_46 + y_V12_4_35 + y_V12_4_36
   + y_V12_4_37 + y_V12_4_38 + y_V12_4_39 + y_V12_4_40 + y_V12_4_41
   + y_V12_4_42 + y_V12_4_43 + y_V12_4_44 + y_V12_4_45 + y_V12_4_46
   + y_V12_5_36 + y_V12_5_37 + y_V12_5_38 + y_V12_5_39 + y_V12_5_40
   + y_V12_5_41 + y_V12_5_42 + y_V12_5_43 + y_V12_5_44 + y_V12_5_45
   + y_V12_5_46 + y_V12_6_31 + y_V12_6_32 + y_V12_6_33 + y_V12_6_34
   + y_V12_6_35 + y_V12_6_36 + y_V12_6_37 + y_V12_6_38 + y_V12_6_39
   + y_V12_6_40 + y_V12_6_41 + y_V12_6_42 + y_V12_6_43 + y_V12_6_44
   + y_V12_6_45 + y_V12_6_46 + y_V12_7_38 + y_V12_7_39 + y_V12_7_40
   + y_V12_7_41 + y_V12_7_42 + y_V12_7_43 + y_V12_7_44 + y_V12_7_45
   + y_V12_7_46 + y_V12_8_32 + y_V12_8_33 + y_V12_8_34 + y_V12_8_35
   + y_V12_8_36 + y_V12_8_37 + y_V12_8_38 + y_V12_8_39 + y_V12_8_40
   + y_V12_8_41 + y_V12_8_42 + y_V12_8_43 + y_V12_8_44 + y_V12_8_45
   + y_V12_8_46 + y_V12_9_39 + y_V12_9_40 + y_V12_9_41 + y_V12_9_42
   + y_V12_9_43 + y_V12_9_44 + y_V12_9_45 + y_V12_9_46 + y_V12_CQ1_46
   + y_V12_CQ3_46 + y_V12_CI1_46 + y_V12_Bar4_46 + y_V12_Bar5_46
   + y_V12_PB1_46 + y_V12_Mos1_46 + y_V12_TZ1_46 + y_V12_WB1_46
   + y_V12_RB1_46 + y_V12_DB1_46 + y_V12_BSY1_46 + y_V12_BSY2_46
   + y_V12_BSY3_46 + y_V12_BSY4_46 + y_V12_BSY5_46 + y_V12_BSY6_46
   + y_V12_BWB1_46 + y_V12_NB1_46 + y_V12_phi_CQ2_46 + y_V12_phi_CQ4_46
   + y_V12_phi_CQ5_46 + y_V12_phi_Bar1_46 + y_V12_phi_Bar2_46
   + y_V12_cp_CQ1_45 + y_V12_cp_CQ1_46 + y_V12_cp_CQ2_45 + y_V12_cp_CQ2_46
   + y_V12_cp_CQ3_45 + y_V12_cp_CQ3_46 + y_V12_cp_CQ4_45 + y_V12_cp_CQ4_46
   + y_V12_cp_CQ5_45 + y_V12_cp_CQ5_46 + y_V12_cp_Bar1_45
   + y_V12_cp_Bar1_46 + y_V12_cp_Bar2_45 + y_V12_cp_Bar2_46
   + y_V12_cp_Bar4_45 + y_V12_cp_Bar4_46 + y_V12_cp_Bar5_45
   + y_V12_cp_Bar5_46 + y_V12_cp_BSY1_45 + y_V12_cp_BSY1_46
   + y_V12_cp_BSY2_45 + y_V12_cp_BSY2_46 + y_V12_cp_BSY3_45
   + y_V12_cp_BSY3_46 + y_V12_cp_BSY4_45 + y_V12_cp_BSY4_46
   + y_V12_cp_BSY5_45 + y_V12_cp_BSY5_46 + y_V12_cp_BSY6_45
   + y_V12_cp_BSY6_46 + y_V12_CQ2_46 + y_V12_CQ4_46 + y_V12_CQ5_46
   + y_V12_Bar1_46 + y_V12_Bar2_46 <= 1
 1f__task_overlap_vV13_t51: y_V13_1_44 + y_V13_1_45 + y_V13_1_46
   + y_V13_1_47 + y_V13_1_48 + y_V13_1_49 + y_V13_1_50 + y_V13_1_51
   + y_V13_2_37 + y_V13_2_38 + y_V13_2_39 + y_V13_2_40 + y_V13_2_41
   + y_V13_2_42 + y_V13_2_43 + y_V13_2_44 + y_V13_2_45 + y_V13_2_46
   + y_V13_2_47 + y_V13_2_48 + y_V13_2_49 + y_V13_2_50 + y_V13_2_51
   + y_V13_3_44 + y_V13_3_45 + y_V13_3_46 + y_V13_3_47 + y_V13_3_48
   + y_V13_3_49 + y_V13_3_50 + y_V13_3_51 + y_V13_4_40 + y_V13_4_41
   + y_V13_4_42 + y_V13_4_43 + y_V13_4_44 + y_V13_4_45 + y_V13_4_46
   + y_V13_4_47 + y_V13_4_48 + y_V13_4_49 + y_V13_4_50 + y_V13_4_51
   + y_V13_5_41 + y_V13_5_42 + y_V13_5_43 + y_V13_5_44 + y_V13_5_45
   + y_V13_5_46 + y_V13_5_47 + y_V13_5_48 + y_V13_5_49 + y_V13_5_50
   + y_V13_5_51 + y_V13_6_36 + y_V13_6_37 + y_V13_6_38 + y_V13_6_39
   + y_V13_6_40 + y_V13_6_41 + y_V13_6_42 + y_V13_6_43 + y_V13_6_44
   + y_V13_6_45 + y_V13_6_46 + y_V13_6_47 + y_V13_6_48 + y_V13_6_49
   + y_V13_6_50 + y_V13_6_51 + y_V13_7_43 + y_V13_7_44 + y_V13_7_45
   + y_V13_7_46 + y_V13_7_47 + y_V13_7_48 + y_V13_7_49 + y_V13_7_50
   + y_V13_7_51 + y_V13_8_37 + y_V13_8_38 + y_V13_8_39 + y_V13_8_40
   + y_V13_8_41 + y_V13_8_42 + y_V13_8_43 + y_V13_8_44 + y_V13_8_45
   + y_V13_8_46 + y_V13_8_47 + y_V13_8_48 + y_V13_8_49 + y_V13_8_50
   + y_V13_8_51 + y_V13_9_44 + y_V13_9_45 + y_V13_9_46 + y_V13_9_47
   + y_V13_9_48 + y_V13_9_49 + y_V13_9_50 + y_V13_9_51 + y_V13_CQ1_51
   + y_V13_CQ3_51 + y_V13_CI1_51 + y_V13_Bar4_51 + y_V13_Bar5_51
   + y_V13_PB1_51 + y_V13_Mos1_51 + y_V13_TZ1_51 + y_V13_WB1_51
   + y_V13_RB1_51 + y_V13_DB1_51 + y_V13_BSY1_51 + y_V13_BSY2_51
   + y_V13_BSY3_51 + y_V13_BSY4_51 + y_V13_BSY5_51 + y_V13_BSY6_51
   + y_V13_BWB1_51 + y_V13_NB1_51 + y_V13_phi_CQ2_51 + y_V13_phi_CQ4_51
   + y_V13_phi_CQ5_51 + y_V13_phi_Bar1_51 + y_V13_phi_Bar2_51
   + y_V13_cp_CQ1_50 + y_V13_cp_CQ1_51 + y_V13_cp_CQ2_50 + y_V13_cp_CQ2_51
   + y_V13_cp_CQ3_50 + y_V13_cp_CQ3_51 + y_V13_cp_CQ4_50 + y_V13_cp_CQ4_51
   + y_V13_cp_CQ5_50 + y_V13_cp_CQ5_51 + y_V13_cp_Bar1_50
   + y_V13_cp_Bar1_51 + y_V13_cp_Bar2_50 + y_V13_cp_Bar2_51
   + y_V13_cp_Bar4_50 + y_V13_cp_Bar4_51 + y_V13_cp_Bar5_50
   + y_V13_cp_Bar5_51 + y_V13_cp_BSY1_50 + y_V13_cp_BSY1_51
   + y_V13_cp_BSY2_50 + y_V13_cp_BSY2_51 + y_V13_cp_BSY3_50
   + y_V13_cp_BSY3_51 + y_V13_cp_BSY4_50 + y_V13_cp_BSY4_51
   + y_V13_cp_BSY5_50 + y_V13_cp_BSY5_51 + y_V13_cp_BSY6_50
   + y_V13_cp_BSY6_51 + y_V13_CQ2_51 + y_V13_CQ4_51 + y_V13_CQ5_51
   + y_V13_Bar1_51 + y_V13_Bar2_51 <= 1
 1f__task_overlap_vV14_t46: y_V14_1_39 + y_V14_1_40 + y_V14_1_41
   + y_V14_1_42 + y_V14_1_43 + y_V14_1_44 + y_V14_1_45 + y_V14_1_46
   + y_V14_2_32 + y_V14_2_33 + y_V14_2_34 + y_V14_2_35 + y_V14_2_36
   + y_V14_2_37 + y_V14_2_38 + y_V14_2_39 + y_V14_2_40 + y_V14_2_41
   + y_V14_2_42 + y_V14_2_43 + y_V14_2_44 + y_V14_2_45 + y_V14_2_46
   + y_V14_3_39 + y_V14_3_40 + y_V14_3_41 + y_V14_3_42 + y_V14_3_43
   + y_V14_3_44 + y_V14_3_45 + y_V14_3_46 + y_V14_4_35 + y_V14_4_36
   + y_V14_4_37 + y_V14_4_38 + y_V14_4_39 + y_V14_4_40 + y_V14_4_41
   + y_V14_4_42 + y_V14_4_43 + y_V14_4_44 + y_V14_4_45 + y_V14_4_46
   + y_V14_5_36 + y_V14_5_37 + y_V14_5_38 + y_V14_5_39 + y_V14_5_40
   + y_V14_5_41 + y_V14_5_42 + y_V14_5_43 + y_V14_5_44 + y_V14_5_45
   + y_V14_5_46 + y_V14_6_31 + y_V14_6_32 + y_V14_6_33 + y_V14_6_34
   + y_V14_6_35 + y_V14_6_36 + y_V14_6_37 + y_V14_6_38 + y_V14_6_39
   + y_V14_6_40 + y_V14_6_41 + y_V14_6_42 + y_V14_6_43 + y_V14_6_44
   + y_V14_6_45 + y_V14_6_46 + y_V14_7_38 + y_V14_7_39 + y_V14_7_40
   + y_V14_7_41 + y_V14_7_42 + y_V14_7_43 + y_V14_7_44 + y_V14_7_45
   + y_V14_7_46 + y_V14_8_32 + y_V14_8_33 + y_V14_8_34 + y_V14_8_35
   + y_V14_8_36 + y_V14_8_37 + y_V14_8_38 + y_V14_8_39 + y_V14_8_40
   + y_V14_8_41 + y_V14_8_42 + y_V14_8_43 + y_V14_8_44 + y_V14_8_45
   + y_V14_8_46 + y_V14_9_39 + y_V14_9_40 + y_V14_9_41 + y_V14_9_42
   + y_V14_9_43 + y_V14_9_44 + y_V14_9_45 + y_V14_9_46 + y_V14_CQ1_46
   + y_V14_CQ3_46 + y_V14_CI1_46 + y_V14_Bar4_46 + y_V14_Bar5_46
   + y_V14_PB1_46 + y_V14_Mos1_46 + y_V14_TZ1_46 + y_V14_WB1_46
   + y_V14_RB1_46 + y_V14_DB1_46 + y_V14_BSY1_46 + y_V14_BSY2_46
   + y_V14_BSY3_46 + y_V14_BSY4_46 + y_V14_BSY5_46 + y_V14_BSY6_46
   + y_V14_BWB1_46 + y_V14_NB1_46 + y_V14_phi_CQ2_46 + y_V14_phi_CQ4_46
   + y_V14_phi_CQ5_46 + y_V14_phi_Bar1_46 + y_V14_phi_Bar2_46
   + y_V14_cp_CQ1_45 + y_V14_cp_CQ1_46 + y_V14_cp_CQ2_45 + y_V14_cp_CQ2_46
   + y_V14_cp_CQ3_45 + y_V14_cp_CQ3_46 + y_V14_cp_CQ4_45 + y_V14_cp_CQ4_46
   + y_V14_cp_CQ5_45 + y_V14_cp_CQ5_46 + y_V14_cp_Bar1_45
   + y_V14_cp_Bar1_46 + y_V14_cp_Bar2_45 + y_V14_cp_Bar2_46
   + y_V14_cp_Bar4_45 + y_V14_cp_Bar4_46 + y_V14_cp_Bar5_45
   + y_V14_cp_Bar5_46 + y_V14_cp_BSY1_45 + y_V14_cp_BSY1_46
   + y_V14_cp_BSY2_45 + y_V14_cp_BSY2_46 + y_V14_cp_BSY3_45
   + y_V14_cp_BSY3_46 + y_V14_cp_BSY4_45 + y_V14_cp_BSY4_46
   + y_V14_cp_BSY5_45 + y_V14_cp_BSY5_46 + y_V14_cp_BSY6_45
   + y_V14_cp_BSY6_46 + y_V14_CQ2_46 + y_V14_CQ4_46 + y_V14_CQ5_46
   + y_V14_Bar1_46 + y_V14_Bar2_46 <= 1
 1f__task_overlap_vV15_t46: y_V15_1_39 + y_V15_1_40 + y_V15_1_41
   + y_V15_1_42 + y_V15_1_43 + y_V15_1_44 + y_V15_1_45 + y_V15_1_46
   + y_V15_2_32 + y_V15_2_33 + y_V15_2_34 + y_V15_2_35 + y_V15_2_36
   + y_V15_2_37 + y_V15_2_38 + y_V15_2_39 + y_V15_2_40 + y_V15_2_41
   + y_V15_2_42 + y_V15_2_43 + y_V15_2_44 + y_V15_2_45 + y_V15_2_46
   + y_V15_3_39 + y_V15_3_40 + y_V15_3_41 + y_V15_3_42 + y_V15_3_43
   + y_V15_3_44 + y_V15_3_45 + y_V15_3_46 + y_V15_4_35 + y_V15_4_36
   + y_V15_4_37 + y_V15_4_38 + y_V15_4_39 + y_V15_4_40 + y_V15_4_41
   + y_V15_4_42 + y_V15_4_43 + y_V15_4_44 + y_V15_4_45 + y_V15_4_46
   + y_V15_5_36 + y_V15_5_37 + y_V15_5_38 + y_V15_5_39 + y_V15_5_40
   + y_V15_5_41 + y_V15_5_42 + y_V15_5_43 + y_V15_5_44 + y_V15_5_45
   + y_V15_5_46 + y_V15_6_31 + y_V15_6_32 + y_V15_6_33 + y_V15_6_34
   + y_V15_6_35 + y_V15_6_36 + y_V15_6_37 + y_V15_6_38 + y_V15_6_39
   + y_V15_6_40 + y_V15_6_41 + y_V15_6_42 + y_V15_6_43 + y_V15_6_44
   + y_V15_6_45 + y_V15_6_46 + y_V15_7_38 + y_V15_7_39 + y_V15_7_40
   + y_V15_7_41 + y_V15_7_42 + y_V15_7_43 + y_V15_7_44 + y_V15_7_45
   + y_V15_7_46 + y_V15_8_32 + y_V15_8_33 + y_V15_8_34 + y_V15_8_35
   + y_V15_8_36 + y_V15_8_37 + y_V15_8_38 + y_V15_8_39 + y_V15_8_40
   + y_V15_8_41 + y_V15_8_42 + y_V15_8_43 + y_V15_8_44 + y_V15_8_45
   + y_V15_8_46 + y_V15_9_39 + y_V15_9_40 + y_V15_9_41 + y_V15_9_42
   + y_V15_9_43 + y_V15_9_44 + y_V15_9_45 + y_V15_9_46 + y_V15_CQ1_46
   + y_V15_CQ3_46 + y_V15_CI1_46 + y_V15_Bar4_46 + y_V15_Bar5_46
   + y_V15_PB1_46 + y_V15_Mos1_46 + y_V15_TZ1_46 + y_V15_WB1_46
   + y_V15_RB1_46 + y_V15_DB1_46 + y_V15_BSY1_46 + y_V15_BSY2_46
   + y_V15_BSY3_46 + y_V15_BSY4_46 + y_V15_BSY5_46 + y_V15_BSY6_46
   + y_V15_BWB1_46 + y_V15_NB1_46 + y_V15_phi_CQ2_46 + y_V15_phi_CQ4_46
   + y_V15_phi_CQ5_46 + y_V15_phi_Bar1_46 + y_V15_phi_Bar2_46
   + y_V15_cp_CQ1_45 + y_V15_cp_CQ1_46 + y_V15_cp_CQ2_45 + y_V15_cp_CQ2_46
   + y_V15_cp_CQ3_45 + y_V15_cp_CQ3_46 + y_V15_cp_CQ4_45 + y_V15_cp_CQ4_46
   + y_V15_cp_CQ5_45 + y_V15_cp_CQ5_46 + y_V15_cp_Bar1_45
   + y_V15_cp_Bar1_46 + y_V15_cp_Bar2_45 + y_V15_cp_Bar2_46
   + y_V15_cp_Bar4_45 + y_V15_cp_Bar4_46 + y_V15_cp_Bar5_45
   + y_V15_cp_Bar5_46 + y_V15_cp_BSY1_45 + y_V15_cp_BSY1_46
   + y_V15_cp_BSY2_45 + y_V15_cp_BSY2_46 + y_V15_cp_BSY3_45
   + y_V15_cp_BSY3_46 + y_V15_cp_BSY4_45 + y_V15_cp_BSY4_46
   + y_V15_cp_BSY5_45 + y_V15_cp_BSY5_46 + y_V15_cp_BSY6_45
   + y_V15_cp_BSY6_46 + y_V15_CQ2_46 + y_V15_CQ4_46 + y_V15_CQ5_46
   + y_V15_Bar1_46 + y_V15_Bar2_46 <= 1
 1f__task_overlap_vV16_t48: y_V16_1_41 + y_V16_1_42 + y_V16_1_43
   + y_V16_1_44 + y_V16_1_45 + y_V16_1_46 + y_V16_1_47 + y_V16_1_48
   + y_V16_2_34 + y_V16_2_35 + y_V16_2_36 + y_V16_2_37 + y_V16_2_38
   + y_V16_2_39 + y_V16_2_40 + y_V16_2_41 + y_V16_2_42 + y_V16_2_43
   + y_V16_2_44 + y_V16_2_45 + y_V16_2_46 + y_V16_2_47 + y_V16_2_48
   + y_V16_3_41 + y_V16_3_42 + y_V16_3_43 + y_V16_3_44 + y_V16_3_45
   + y_V16_3_46 + y_V16_3_47 + y_V16_3_48 + y_V16_4_37 + y_V16_4_38
   + y_V16_4_39 + y_V16_4_40 + y_V16_4_41 + y_V16_4_42 + y_V16_4_43
   + y_V16_4_44 + y_V16_4_45 + y_V16_4_46 + y_V16_4_47 + y_V16_4_48
   + y_V16_5_38 + y_V16_5_39 + y_V16_5_40 + y_V16_5_41 + y_V16_5_42
   + y_V16_5_43 + y_V16_5_44 + y_V16_5_45 + y_V16_5_46 + y_V16_5_47
   + y_V16_5_48 + y_V16_6_33 + y_V16_6_34 + y_V16_6_35 + y_V16_6_36
   + y_V16_6_37 + y_V16_6_38 + y_V16_6_39 + y_V16_6_40 + y_V16_6_41
   + y_V16_6_42 + y_V16_6_43 + y_V16_6_44 + y_V16_6_45 + y_V16_6_46
   + y_V16_6_47 + y_V16_6_48 + y_V16_7_40 + y_V16_7_41 + y_V16_7_42
   + y_V16_7_43 + y_V16_7_44 + y_V16_7_45 + y_V16_7_46 + y_V16_7_47
   + y_V16_7_48 + y_V16_8_34 + y_V16_8_35 + y_V16_8_36 + y_V16_8_37
   + y_V16_8_38 + y_V16_8_39 + y_V16_8_40 + y_V16_8_41 + y_V16_8_42
   + y_V16_8_43 + y_V16_8_44 + y_V16_8_45 + y_V16_8_46 + y_V16_8_47
   + y_V16_8_48 + y_V16_9_41 + y_V16_9_42 + y_V16_9_43 + y_V16_9_44
   + y_V16_9_45 + y_V16_9_46 + y_V16_9_47 + y_V16_9_48 + y_V16_CQ1_48
   + y_V16_CQ3_48 + y_V16_CI1_48 + y_V16_Bar4_48 + y_V16_Bar5_48
   + y_V16_PB1_48 + y_V16_Mos1_48 + y_V16_TZ1_48 + y_V16_WB1_48
   + y_V16_RB1_48 + y_V16_DB1_48 + y_V16_BSY1_48 + y_V16_BSY2_48
   + y_V16_BSY3_48 + y_V16_BSY4_48 + y_V16_BSY5_48 + y_V16_BSY6_48
   + y_V16_BWB1_48 + y_V16_NB1_48 + y_V16_phi_CQ2_48 + y_V16_phi_CQ4_48
   + y_V16_phi_CQ5_48 + y_V16_phi_Bar1_48 + y_V16_phi_Bar2_48
   + y_V16_cp_CQ1_47 + y_V16_cp_CQ1_48 + y_V16_cp_CQ2_47 + y_V16_cp_CQ2_48
   + y_V16_cp_CQ3_47 + y_V16_cp_CQ3_48 + y_V16_cp_CQ4_47 + y_V16_cp_CQ4_48
   + y_V16_cp_CQ5_47 + y_V16_cp_CQ5_48 + y_V16_cp_Bar1_47
   + y_V16_cp_Bar1_48 + y_V16_cp_Bar2_47 + y_V16_cp_Bar2_48
   + y_V16_cp_Bar4_47 + y_V16_cp_Bar4_48 + y_V16_cp_Bar5_47
   + y_V16_cp_Bar5_48 + y_V16_cp_BSY1_47 + y_V16_cp_BSY1_48
   + y_V16_cp_BSY2_47 + y_V16_cp_BSY2_48 + y_V16_cp_BSY3_47
   + y_V16_cp_BSY3_48 + y_V16_cp_BSY4_47 + y_V16_cp_BSY4_48
   + y_V16_cp_BSY5_47 + y_V16_cp_BSY5_48 + y_V16_cp_BSY6_47
   + y_V16_cp_BSY6_48 + y_V16_CQ2_48 + y_V16_CQ4_48 + y_V16_CQ5_48
   + y_V16_Bar1_48 + y_V16_Bar2_48 <= 1
 1f__task_overlap_vV17_t46: y_V17_1_39 + y_V17_1_40 + y_V17_1_41
   + y_V17_1_42 + y_V17_1_43 + y_V17_1_44 + y_V17_1_45 + y_V17_1_46
   + y_V17_2_32 + y_V17_2_33 + y_V17_2_34 + y_V17_2_35 + y_V17_2_36
   + y_V17_2_37 + y_V17_2_38 + y_V17_2_39 + y_V17_2_40 + y_V17_2_41
   + y_V17_2_42 + y_V17_2_43 + y_V17_2_44 + y_V17_2_45 + y_V17_2_46
   + y_V17_3_39 + y_V17_3_40 + y_V17_3_41 + y_V17_3_42 + y_V17_3_43
   + y_V17_3_44 + y_V17_3_45 + y_V17_3_46 + y_V17_4_35 + y_V17_4_36
   + y_V17_4_37 + y_V17_4_38 + y_V17_4_39 + y_V17_4_40 + y_V17_4_41
   + y_V17_4_42 + y_V17_4_43 + y_V17_4_44 + y_V17_4_45 + y_V17_4_46
   + y_V17_5_36 + y_V17_5_37 + y_V17_5_38 + y_V17_5_39 + y_V17_5_40
   + y_V17_5_41 + y_V17_5_42 + y_V17_5_43 + y_V17_5_44 + y_V17_5_45
   + y_V17_5_46 + y_V17_6_31 + y_V17_6_32 + y_V17_6_33 + y_V17_6_34
   + y_V17_6_35 + y_V17_6_36 + y_V17_6_37 + y_V17_6_38 + y_V17_6_39
   + y_V17_6_40 + y_V17_6_41 + y_V17_6_42 + y_V17_6_43 + y_V17_6_44
   + y_V17_6_45 + y_V17_6_46 + y_V17_7_38 + y_V17_7_39 + y_V17_7_40
   + y_V17_7_41 + y_V17_7_42 + y_V17_7_43 + y_V17_7_44 + y_V17_7_45
   + y_V17_7_46 + y_V17_8_32 + y_V17_8_33 + y_V17_8_34 + y_V17_8_35
   + y_V17_8_36 + y_V17_8_37 + y_V17_8_38 + y_V17_8_39 + y_V17_8_40
   + y_V17_8_41 + y_V17_8_42 + y_V17_8_43 + y_V17_8_44 + y_V17_8_45
   + y_V17_8_46 + y_V17_9_39 + y_V17_9_40 + y_V17_9_41 + y_V17_9_42
   + y_V17_9_43 + y_V17_9_44 + y_V17_9_45 + y_V17_9_46 + y_V17_CQ1_46
   + y_V17_CQ3_46 + y_V17_CI1_46 + y_V17_Bar4_46 + y_V17_Bar5_46
   + y_V17_PB1_46 + y_V17_Mos1_46 + y_V17_TZ1_46 + y_V17_WB1_46
   + y_V17_RB1_46 + y_V17_DB1_46 + y_V17_BSY1_46 + y_V17_BSY2_46
   + y_V17_BSY3_46 + y_V17_BSY4_46 + y_V17_BSY5_46 + y_V17_BSY6_46
   + y_V17_BWB1_46 + y_V17_NB1_46 + y_V17_phi_CQ2_46 + y_V17_phi_CQ4_46
   + y_V17_phi_CQ5_46 + y_V17_phi_Bar1_46 + y_V17_phi_Bar2_46
   + y_V17_cp_CQ1_45 + y_V17_cp_CQ1_46 + y_V17_cp_CQ2_45 + y_V17_cp_CQ2_46
   + y_V17_cp_CQ3_45 + y_V17_cp_CQ3_46 + y_V17_cp_CQ4_45 + y_V17_cp_CQ4_46
   + y_V17_cp_CQ5_45 + y_V17_cp_CQ5_46 + y_V17_cp_Bar1_45
   + y_V17_cp_Bar1_46 + y_V17_cp_Bar2_45 + y_V17_cp_Bar2_46
   + y_V17_cp_Bar4_45 + y_V17_cp_Bar4_46 + y_V17_cp_Bar5_45
   + y_V17_cp_Bar5_46 + y_V17_cp_BSY1_45 + y_V17_cp_BSY1_46
   + y_V17_cp_BSY2_45 + y_V17_cp_BSY2_46 + y_V17_cp_BSY3_45
   + y_V17_cp_BSY3_46 + y_V17_cp_BSY4_45 + y_V17_cp_BSY4_46
   + y_V17_cp_BSY5_45 + y_V17_cp_BSY5_46 + y_V17_cp_BSY6_45
   + y_V17_cp_BSY6_46 + y_V17_CQ2_46 + y_V17_CQ4_46 + y_V17_CQ5_46
   + y_V17_Bar1_46 + y_V17_Bar2_46 <= 1
Bounds
 x_7_6 = 1
 y_V18_7_46 = 0
 y_V19_7_46 = 0
 y_V1_7_46 = 0
 y_V2_7_46 = 0
 y_V3_7_46 = 0
 y_V4_7_46 = 0
 y_V5_7_46 = 0
 y_V6_7_46 = 0
 y_V7_7_46 = 0
 y_V8_7_46 = 0
 y_V9_7_46 = 0
 y_V10_7_46 = 0
 y_V11_7_46 = 0
 y_V12_2_39 = 1
 y_V13_2_45 = 1
 y_V14_7_38 = 1
 y_V15_7_42 = 1
 y_V16_8_48 = 1
 y_V17_2_35 = 1
Binaries
 x_7_6 y_V18_7_46 y_V19_7_46 y_V1_7_46 y_V2_7_46 y_V3_7_46 y_V4_7_46
 y_V5_7_46 y_V6_7_46 y_V7_7_46 y_V8_7_46 y_V9_7_46 y_V10_7_46 y_V11_7_46
 y_V12_1_39 y_V12_1_40 y_V12_1_41 y_V12_1_42 y_V12_1_43 y_V12_1_44
 y_V12_1_45 y_V12_1_46 y_V12_2_32 y_V12_2_33 y_V12_2_34 y_V12_2_35
 y_V12_2_36 y_V12_2_37 y_V12_2_38 y_V12_2_39 y_V12_2_40 y_V12_2_41
 y_V12_2_42 y_V12_2_43 y_V12_2_44 y_V12_2_45 y_V12_2_46 y_V12_3_39
 y_V12_3_40 y_V12_3_41 y_V12_3_42 y_V12_3_43 y_V12_3_44 y_V12_3_45
 y_V12_3_46 y_V12_4_35 y_V12_4_36 y_V12_4_37 y_V12_4_38 y_V12_4_39
 y_V12_4_40 y_V12_4_41 y_V12_4_42 y_V12_4_43 y_V12_4_44 y_V12_4_45
 y_V12_4_46 y_V12_5_36 y_V12_5_37 y_V12_5_38 y_V12_5_39 y_V12_5_40
 y_V12_5_41 y_V12_5_42 y_V12_5_43 y_V12_5_44 y_V12_5_45 y_V12_5_46
 y_V12_6_31 y_V12_6_32 y_V12_6_33 y_V12_6_34 y_V12_6_35 y_V12_6_36
 y_V12_6_37 y_V12_6_38 y_V12_6_39 y_V12_6_40 y_V12_6_41 y_V12_6_42
 y_V12_6_43 y_V12_6_44 y_V12_6_45 y_V12_6_46 y_V12_7_38 y_V12_7_39
 y_V12_7_40 y_V12_7_41 y_V12_7_42 y_V12_7_43 y_V12_7_44 y_V12_7_45
 y_V12_7_46 y_V12_8_32 y_V12_8_33 y_V12_8_34 y_V12_8_35 y_V12_8_36
 y_V12_8_37 y_V12_8_38 y_V12_8_39 y_V12_8_40 y_V12_8_41 y_V12_8_42
 y_V12_8_43 y_V12_8_44 y_V12_8_45 y_V12_8_46 y_V12_9_39 y_V12_9_40
 y_V12_9_41 y_V12_9_42 y_V12_9_43 y_V12_9_44 y_V12_9_45 y_V12_9_46
 y_V12_CQ1_46 y_V12_CQ3_46 y_V12_CI1_46 y_V12_Bar4_46 y_V12_Bar5_46
 y_V12_PB1_46 y_V12_Mos1_46 y_V12_TZ1_46 y_V12_WB1_46 y_V12_RB1_46
 y_V12_DB1_46 y_V12_BSY1_46 y_V12_BSY2_46 y_V12_BSY3_46 y_V12_BSY4_46
 y_V12_BSY5_46 y_V12_BSY6_46 y_V12_BWB1_46 y_V12_NB1_46 y_V12_phi_CQ2_46
 y_V12_phi_CQ4_46 y_V12_phi_CQ5_46 y_V12_phi_Bar1_46 y_V12_phi_Bar2_46
 y_V12_cp_CQ1_45 y_V12_cp_CQ1_46 y_V12_cp_CQ2_45 y_V12_cp_CQ2_46
 y_V12_cp_CQ3_45 y_V12_cp_CQ3_46 y_V12_cp_CQ4_45 y_V12_cp_CQ4_46
 y_V12_cp_CQ5_45 y_V12_cp_CQ5_46 y_V12_cp_Bar1_45 y_V12_cp_Bar1_46
 y_V12_cp_Bar2_45 y_V12_cp_Bar2_46 y_V12_cp_Bar4_45 y_V12_cp_Bar4_46
 y_V12_cp_Bar5_45 y_V12_cp_Bar5_46 y_V12_cp_BSY1_45 y_V12_cp_BSY1_46
 y_V12_cp_BSY2_45 y_V12_cp_BSY2_46 y_V12_cp_BSY3_45 y_V12_cp_BSY3_46
 y_V12_cp_BSY4_45 y_V12_cp_BSY4_46 y_V12_cp_BSY5_45 y_V12_cp_BSY5_46
 y_V12_cp_BSY6_45 y_V12_cp_BSY6_46 y_V12_CQ2_46 y_V12_CQ4_46 y_V12_CQ5_46
 y_V12_Bar1_46 y_V12_Bar2_46 y_V13_1_44 y_V13_1_45 y_V13_1_46 y_V13_1_47
 y_V13_1_48 y_V13_1_49 y_V13_1_50 y_V13_1_51 y_V13_2_37 y_V13_2_38
 y_V13_2_39 y_V13_2_40 y_V13_2_41 y_V13_2_42 y_V13_2_43 y_V13_2_44
 y_V13_2_45 y_V13_2_46 y_V13_2_47 y_V13_2_48 y_V13_2_49 y_V13_2_50
 y_V13_2_51 y_V13_3_44 y_V13_3_45 y_V13_3_46 y_V13_3_47 y_V13_3_48
 y_V13_3_49 y_V13_3_50 y_V13_3_51 y_V13_4_40 y_V13_4_41 y_V13_4_42
 y_V13_4_43 y_V13_4_44 y_V13_4_45 y_V13_4_46 y_V13_4_47 y_V13_4_48
 y_V13_4_49 y_V13_4_50 y_V13_4_51 y_V13_5_41 y_V13_5_42 y_V13_5_43
 y_V13_5_44 y_V13_5_45 y_V13_5_46 y_V13_5_47 y_V13_5_48 y_V13_5_49
 y_V13_5_50 y_V13_5_51 y_V13_6_36 y_V13_6_37 y_V13_6_38 y_V13_6_39
 y_V13_6_40 y_V13_6_41 y_V13_6_42 y_V13_6_43 y_V13_6_44 y_V13_6_45
 y_V13_6_46 y_V13_6_47 y_V13_6_48 y_V13_6_49 y_V13_6_50 y_V13_6_51
 y_V13_7_43 y_V13_7_44 y_V13_7_45 y_V13_7_46 y_V13_7_47 y_V13_7_48
 y_V13_7_49 y_V13_7_50 y_V13_7_51 y_V13_8_37 y_V13_8_38 y_V13_8_39
 y_V13_8_40 y_V13_8_41 y_V13_8_42 y_V13_8_43 y_V13_8_44 y_V13_8_45
 y_V13_8_46 y_V13_8_47 y_V13_8_48 y_V13_8_49 y_V13_8_50 y_V13_8_51
 y_V13_9_44 y_V13_9_45 y_V13_9_46 y_V13_9_47 y_V13_9_48 y_V13_9_49
 y_V13_9_50 y_V13_9_51 y_V13_CQ1_51 y_V13_CQ3_51 y_V13_CI1_51 y_V13_Bar4_51
 y_V13_Bar5_51 y_V13_PB1_51 y_V13_Mos1_51 y_V13_TZ1_51 y_V13_WB1_51
 y_V13_RB1_51 y_V13_DB1_51 y_V13_BSY1_51 y_V13_BSY2_51 y_V13_BSY3_51
 y_V13_BSY4_51 y_V13_BSY5_51 y_V13_BSY6_51 y_V13_BWB1_51 y_V13_NB1_51
 y_V13_phi_CQ2_51 y_V13_phi_CQ4_51 y_V13_phi_CQ5_51 y_V13_phi_Bar1_51
 y_V13_phi_Bar2_51 y_V13_cp_CQ1_50 y_V13_cp_CQ1_51 y_V13_cp_CQ2_50
 y_V13_cp_CQ2_51 y_V13_cp_CQ3_50 y_V13_cp_CQ3_51 y_V13_cp_CQ4_50
 y_V13_cp_CQ4_51 y_V13_cp_CQ5_50 y_V13_cp_CQ5_51 y_V13_cp_Bar1_50
 y_V13_cp_Bar1_51 y_V13_cp_Bar2_50 y_V13_cp_Bar2_51 y_V13_cp_Bar4_50
 y_V13_cp_Bar4_51 y_V13_cp_Bar5_50 y_V13_cp_Bar5_51 y_V13_cp_BSY1_50
 y_V13_cp_BSY1_51 y_V13_cp_BSY2_50 y_V13_cp_BSY2_51 y_V13_cp_BSY3_50
 y_V13_cp_BSY3_51 y_V13_cp_BSY4_50 y_V13_cp_BSY4_51 y_V13_cp_BSY5_50
 y_V13_cp_BSY5_51 y_V13_cp_BSY6_50 y_V13_cp_BSY6_51 y_V13_CQ2_51
 y_V13_CQ4_51 y_V13_CQ5_51 y_V13_Bar1_51 y_V13_Bar2_51 y_V14_1_39
 y_V14_1_40 y_V14_1_41 y_V14_1_42 y_V14_1_43 y_V14_1_44 y_V14_1_45
 y_V14_1_46 y_V14_2_32 y_V14_2_33 y_V14_2_34 y_V14_2_35 y_V14_2_36
 y_V14_2_37 y_V14_2_38 y_V14_2_39 y_V14_2_40 y_V14_2_41 y_V14_2_42
 y_V14_2_43 y_V14_2_44 y_V14_2_45 y_V14_2_46 y_V14_3_39 y_V14_3_40
 y_V14_3_41 y_V14_3_42 y_V14_3_43 y_V14_3_44 y_V14_3_45 y_V14_3_46
 y_V14_4_35 y_V14_4_36 y_V14_4_37 y_V14_4_38 y_V14_4_39 y_V14_4_40
 y_V14_4_41 y_V14_4_42 y_V14_4_43 y_V14_4_44 y_V14_4_45 y_V14_4_46
 y_V14_5_36 y_V14_5_37 y_V14_5_38 y_V14_5_39 y_V14_5_40 y_V14_5_41
 y_V14_5_42 y_V14_5_43 y_V14_5_44 y_V14_5_45 y_V14_5_46 y_V14_6_31
 y_V14_6_32 y_V14_6_33 y_V14_6_34 y_V14_6_35 y_V14_6_36 y_V14_6_37
 y_V14_6_38 y_V14_6_39 y_V14_6_40 y_V14_6_41 y_V14_6_42 y_V14_6_43
 y_V14_6_44 y_V14_6_45 y_V14_6_46 y_V14_7_38 y_V14_7_39 y_V14_7_40
 y_V14_7_41 y_V14_7_42 y_V14_7_43 y_V14_7_44 y_V14_7_45 y_V14_7_46
 y_V14_8_32 y_V14_8_33 y_V14_8_34 y_V14_8_35 y_V14_8_36 y_V14_8_37
 y_V14_8_38 y_V14_8_39 y_V14_8_40 y_V14_8_41 y_V14_8_42 y_V14_8_43
 y_V14_8_44 y_V14_8_45 y_V14_8_46 y_V14_9_39 y_V14_9_40 y_V14_9_41
 y_V14_9_42 y_V14_9_43 y_V14_9_44 y_V14_9_45 y_V14_9_46 y_V14_CQ1_46
 y_V14_CQ3_46 y_V14_CI1_46 y_V14_Bar4_46 y_V14_Bar5_46 y_V14_PB1_46
 y_V14_Mos1_46 y_V14_TZ1_46 y_V14_WB1_46 y_V14_RB1_46 y_V14_DB1_46
 y_V14_BSY1_46 y_V14_BSY2_46 y_V14_BSY3_46 y_V14_BSY4_46 y_V14_BSY5_46
 y_V14_BSY6_46 y_V14_BWB1_46 y_V14_NB1_46 y_V14_phi_CQ2_46 y_V14_phi_CQ4_46
 y_V14_phi_CQ5_46 y_V14_phi_Bar1_46 y_V14_phi_Bar2_46 y_V14_cp_CQ1_45
 y_V14_cp_CQ1_46 y_V14_cp_CQ2_45 y_V14_cp_CQ2_46 y_V14_cp_CQ3_45
 y_V14_cp_CQ3_46 y_V14_cp_CQ4_45 y_V14_cp_CQ4_46 y_V14_cp_CQ5_45
 y_V14_cp_CQ5_46 y_V14_cp_Bar1_45 y_V14_cp_Bar1_46 y_V14_cp_Bar2_45
 y_V14_cp_Bar2_46 y_V14_cp_Bar4_45 y_V14_cp_Bar4_46 y_V14_cp_Bar5_45
 y_V14_cp_Bar5_46 y_V14_cp_BSY1_45 y_V14_cp_BSY1_46 y_V14_cp_BSY2_45
 y_V14_cp_BSY2_46 y_V14_cp_BSY3_45 y_V14_cp_BSY3_46 y_V14_cp_BSY4_45
 y_V14_cp_BSY4_46 y_V14_cp_BSY5_45 y_V14_cp_BSY5_46 y_V14_cp_BSY6_45
 y_V14_cp_BSY6_46 y_V14_CQ2_46 y_V14_CQ4_46 y_V14_CQ5_46 y_V14_Bar1_46
 y_V14_Bar2_46 y_V15_1_39 y_V15_1_40 y_V15_1_41 y_V15_1_42 y_V15_1_43
 y_V15_1_44 y_V15_1_45 y_V15_1_46 y_V15_2_32 y_V15_2_33 y_V15_2_34
 y_V15_2_35 y_V15_2_36 y_V15_2_37 y_V15_2_38 y_V15_2_39 y_V15_2_40
 y_V15_2_41 y_V15_2_42 y_V15_2_43 y_V15_2_44 y_V15_2_45 y_V15_2_46
 y_V15_3_39 y_V15_3_40 y_V15_3_41 y_V15_3_42 y_V15_3_43 y_V15_3_44
 y_V15_3_45 y_V15_3_46 y_V15_4_35 y_V15_4_36 y_V15_4_37 y_V15_4_38
 y_V15_4_39 y_V15_4_40 y_V15_4_41 y_V15_4_42 y_V15_4_43 y_V15_4_44
 y_V15_4_45 y_V15_4_46 y_V15_5_36 y_V15_5_37 y_V15_5_38 y_V15_5_39
 y_V15_5_40 y_V15_5_41 y_V15_5_42 y_V15_5_43 y_V15_5_44 y_V15_5_45
 y_V15_5_46 y_V15_6_31 y_V15_6_32 y_V15_6_33 y_V15_6_34 y_V15_6_35
 y_V15_6_36 y_V15_6_37 y_V15_6_38 y_V15_6_39 y_V15_6_40 y_V15_6_41
 y_V15_6_42 y_V15_6_43 y_V15_6_44 y_V15_6_45 y_V15_6_46 y_V15_7_38
 y_V15_7_39 y_V15_7_40 y_V15_7_41 y_V15_7_42 y_V15_7_43 y_V15_7_44
 y_V15_7_45 y_V15_7_46 y_V15_8_32 y_V15_8_33 y_V15_8_34 y_V15_8_35
 y_V15_8_36 y_V15_8_37 y_V15_8_38 y_V15_8_39 y_V15_8_40 y_V15_8_41
 y_V15_8_42 y_V15_8_43 y_V15_8_44 y_V15_8_45 y_V15_8_46 y_V15_9_39
 y_V15_9_40 y_V15_9_41 y_V15_9_42 y_V15_9_43 y_V15_9_44 y_V15_9_45
 y_V15_9_46 y_V15_CQ1_46 y_V15_CQ3_46 y_V15_CI1_46 y_V15_Bar4_46
 y_V15_Bar5_46 y_V15_PB1_46 y_V15_Mos1_46 y_V15_TZ1_46 y_V15_WB1_46
 y_V15_RB1_46 y_V15_DB1_46 y_V15_BSY1_46 y_V15_BSY2_46 y_V15_BSY3_46
 y_V15_BSY4_46 y_V15_BSY5_46 y_V15_BSY6_46 y_V15_BWB1_46 y_V15_NB1_46
 y_V15_phi_CQ2_46 y_V15_phi_CQ4_46 y_V15_phi_CQ5_46 y_V15_phi_Bar1_46
 y_V15_phi_Bar2_46 y_V15_cp_CQ1_45 y_V15_cp_CQ1_46 y_V15_cp_CQ2_45
 y_V15_cp_CQ2_46 y_V15_cp_CQ3_45 y_V15_cp_CQ3_46 y_V15_cp_CQ4_45
 y_V15_cp_CQ4_46 y_V15_cp_CQ5_45 y_V15_cp_CQ5_46 y_V15_cp_Bar1_45
 y_V15_cp_Bar1_46 y_V15_cp_Bar2_45 y_V15_cp_Bar2_46 y_V15_cp_Bar4_45
 y_V15_cp_Bar4_46 y_V15_cp_Bar5_45 y_V15_cp_Bar5_46 y_V15_cp_BSY1_45
 y_V15_cp_BSY1_46 y_V15_cp_BSY2_45 y_V15_cp_BSY2_46 y_V15_cp_BSY3_45
 y_V15_cp_BSY3_46 y_V15_cp_BSY4_45 y_V15_cp_BSY4_46 y_V15_cp_BSY5_45
 y_V15_cp_BSY5_46 y_V15_cp_BSY6_45 y_V15_cp_BSY6_46 y_V15_CQ2_46
 y_V15_CQ4_46 y_V15_CQ5_46 y_V15_Bar1_46 y_V15_Bar2_46 y_V16_1_41
 y_V16_1_42 y_V16_1_43 y_V16_1_44 y_V16_1_45 y_V16_1_46 y_V16_1_47
 y_V16_1_48 y_V16_2_34 y_V16_2_35 y_V16_2_36 y_V16_2_37 y_V16_2_38
 y_V16_2_39 y_V16_2_40 y_V16_2_41 y_V16_2_42 y_V16_2_43 y_V16_2_44
 y_V16_2_45 y_V16_2_46 y_V16_2_47 y_V16_2_48 y_V16_3_41 y_V16_3_42
 y_V16_3_43 y_V16_3_44 y_V16_3_45 y_V16_3_46 y_V16_3_47 y_V16_3_48
 y_V16_4_37 y_V16_4_38 y_V16_4_39 y_V16_4_40 y_V16_4_41 y_V16_4_42
 y_V16_4_43 y_V16_4_44 y_V16_4_45 y_V16_4_46 y_V16_4_47 y_V16_4_48
 y_V16_5_38 y_V16_5_39 y_V16_5_40 y_V16_5_41 y_V16_5_42 y_V16_5_43
 y_V16_5_44 y_V16_5_45 y_V16_5_46 y_V16_5_47 y_V16_5_48 y_V16_6_33
 y_V16_6_34 y_V16_6_35 y_V16_6_36 y_V16_6_37 y_V16_6_38 y_V16_6_39
 y_V16_6_40 y_V16_6_41 y_V16_6_42 y_V16_6_43 y_V16_6_44 y_V16_6_45
 y_V16_6_46 y_V16_6_47 y_V16_6_48 y_V16_7_40 y_V16_7_41 y_V16_7_42
 y_V16_7_43 y_V16_7_44 y_V16_7_45 y_V16_7_46 y_V16_7_47 y_V16_7_48
 y_V16_8_34 y_V16_8_35 y_V16_8_36 y_V16_8_37 y_V16_8_38 y_V16_8_39
 y_V16_8_40 y_V16_8_41 y_V16_8_42 y_V16_8_43 y_V16_8_44 y_V16_8_45
 y_V16_8_46 y_V16_8_47 y_V16_8_48 y_V16_9_41 y_V16_9_42 y_V16_9_43
 y_V16_9_44 y_V16_9_45 y_V16_9_46 y_V16_9_47 y_V16_9_48 y_V16_CQ1_48
 y_V16_CQ3_48 y_V16_CI1_48 y_V16_Bar4_48 y_V16_Bar5_48 y_V16_PB1_48
 y_V16_Mos1_48 y_V16_TZ1_48 y_V16_WB1_48 y_V16_RB1_48 y_V16_DB1_48
 y_V16_BSY1_48 y_V16_BSY2_48 y_V16_BSY3_48 y_V16_BSY4_48 y_V16_BSY5_48
 y_V16_BSY6_48 y_V16_BWB1_48 y_V16_NB1_48 y_V16_phi_CQ2_48 y_V16_phi_CQ4_48
 y_V16_phi_CQ5_48 y_V16_phi_Bar1_48 y_V16_phi_Bar2_48 y_V16_cp_CQ1_47
 y_V16_cp_CQ1_48 y_V16_cp_CQ2_47 y_V16_cp_CQ2_48 y_V16_cp_CQ3_47
 y_V16_cp_CQ3_48 y_V16_cp_CQ4_47 y_V16_cp_CQ4_48 y_V16_cp_CQ5_47
 y_V16_cp_CQ5_48 y_V16_cp_Bar1_47 y_V16_cp_Bar1_48 y_V16_cp_Bar2_47
 y_V16_cp_Bar2_48 y_V16_cp_Bar4_47 y_V16_cp_Bar4_48 y_V16_cp_Bar5_47
 y_V16_cp_Bar5_48 y_V16_cp_BSY1_47 y_V16_cp_BSY1_48 y_V16_cp_BSY2_47
 y_V16_cp_BSY2_48 y_V16_cp_BSY3_47 y_V16_cp_BSY3_48 y_V16_cp_BSY4_47
 y_V16_cp_BSY4_48 y_V16_cp_BSY5_47 y_V16_cp_BSY5_48 y_V16_cp_BSY6_47
 y_V16_cp_BSY6_48 y_V16_CQ2_48 y_V16_CQ4_48 y_V16_CQ5_48 y_V16_Bar1_48
 y_V16_Bar2_48 y_V17_1_39 y_V17_1_40 y_V17_1_41 y_V17_1_42 y_V17_1_43
 y_V17_1_44 y_V17_1_45 y_V17_1_46 y_V17_2_32 y_V17_2_33 y_V17_2_34
 y_V17_2_35 y_V17_2_36 y_V17_2_37 y_V17_2_38 y_V17_2_39 y_V17_2_40
 y_V17_2_41 y_V17_2_42 y_V17_2_43 y_V17_2_44 y_V17_2_45 y_V17_2_46
 y_V17_3_39 y_V17_3_40 y_V17_3_41 y_V17_3_42 y_V17_3_43 y_V17_3_44
 y_V17_3_45 y_V17_3_46 y_V17_4_35 y_V17_4_36 y_V17_4_37 y_V17_4_38
 y_V17_4_39 y_V17_4_40 y_V17_4_41 y_V17_4_42 y_V17_4_43 y_V17_4_44
 y_V17_4_45 y_V17_4_46 y_V17_5_36 y_V17_5_37 y_V17_5_38 y_V17_5_39
 y_V17_5_40 y_V17_5_41 y_V17_5_42 y_V17_5_43 y_V17_5_44 y_V17_5_45
 y_V17_5_46 y_V17_6_31 y_V17_6_32 y_V17_6_33 y_V17_6_34 y_V17_6_35
 y_V17_6_36 y_V17_6_37 y_V17_6_38 y_V17_6_39 y_V17_6_40 y_V17_6_41
 y_V17_6_42 y_V17_6_43 y_V17_6_44 y_V17_6_45 y_V17_6_46 y_V17_7_38
 y_V17_7_39 y_V17_7_40 y_V17_7_41 y_V17_7_42 y_V17_7_43 y_V17_7_44
 y_V17_7_45 y_V17_7_46 y_V17_8_32 y_V17_8_33 y_V17_8_34 y_V17_8_35
 y_V17_8_36 y_V17_8_37 y_V17_8_38 y_V17_8_39 y_V17_8_40 y_V17_8_41
 y_V17_8_42 y_V17_8_43 y_V17_8_44 y_V17_8_45 y_V17_8_46 y_V17_9_39
 y_V17_9_40 y_V17_9_41 y_V17_9_42 y_V17_9_43 y_V17_9_44 y_V17_9_45
 y_V17_9_46 y_V17_CQ1_46 y_V17_CQ3_46 y_V17_CI1_46 y_V17_Bar4_46
 y_V17_Bar5_46 y_V17_PB1_46 y_V17_Mos1_46 y_V17_TZ1_46 y_V17_WB1_46
 y_V17_RB1_46 y_V17_DB1_46 y_V17_BSY1_46 y_V17_BSY2_46 y_V17_BSY3_46
 y_V17_BSY4_46 y_V17_BSY5_46 y_V17_BSY6_46 y_V17_BWB1_46 y_V17_NB1_46
 y_V17_phi_CQ2_46 y_V17_phi_CQ4_46 y_V17_phi_CQ5_46 y_V17_phi_Bar1_46
 y_V17_phi_Bar2_46 y_V17_cp_CQ1_45 y_V17_cp_CQ1_46 y_V17_cp_CQ2_45
 y_V17_cp_CQ2_46 y_V17_cp_CQ3_45 y_V17_cp_CQ3_46 y_V17_cp_CQ4_45
 y_V17_cp_CQ4_46 y_V17_cp_CQ5_45 y_V17_cp_CQ5_46 y_V17_cp_Bar1_45
 y_V17_cp_Bar1_46 y_V17_cp_Bar2_45 y_V17_cp_Bar2_46 y_V17_cp_Bar4_45
 y_V17_cp_Bar4_46 y_V17_cp_Bar5_45 y_V17_cp_Bar5_46 y_V17_cp_BSY1_45
 y_V17_cp_BSY1_46 y_V17_cp_BSY2_45 y_V17_cp_BSY2_46 y_V17_cp_BSY3_45
 y_V17_cp_BSY3_46 y_V17_cp_BSY4_45 y_V17_cp_BSY4_46 y_V17_cp_BSY5_45
 y_V17_cp_BSY5_46 y_V17_cp_BSY6_45 y_V17_cp_BSY6_46 y_V17_CQ2_46
 y_V17_CQ4_46 y_V17_CQ5_46 y_V17_Bar1_46 y_V17_Bar2_46
End
